DIMENSION :5
NODE_COORD_SECTION
1 -95.4776494869008 -15.50986236915486
2 53.374698432503436 -33.695585922934086
3 44.338815447990555 -24.32588513483242
4 16.300012269053127 66.52580437768441
5 98.40198416236856 -6.146014054270466
EOF
